Optimal - objective value 924.00000000
      0 x_0                    1                       0
      4 x_4                    1                       6
     10 x_10                   1                       0
     16 x_16                   1                       0
     19 x_19                   1                       0
     25 x_25                   1                       0
     27 x_27                   1                       0
     30 x_30                   1                       0
     35 x_35                   1                       0
     41 x_41                   1                       0
     48 x_48                   1               -21.90625
     52 x_52                   1                       0
     58 x_58                   1                       0
     63 x_63                   1                      17
     67 x_67                   1                22.34375
     68 x_68                   1                       0
     73 x_73                   1                       0
     78 x_78                   1                19.34375
     81 x_81                   1                 11.0625
     88 x_88                   1                       0
     90 x_90                   1                       0
     99 x_99                   1                      23
    100 x_100                  1                       0
    111 x_111                  1                      14
    115 x_115                  1                       0
    116 x_116                  1                       0
    121 x_121                  1                       0
    124 x_124                  1                       0
    128 x_128                  1                       0
    131 x_131                  1                       0
    134 x_134                  1                       0
    139 x_139                  1                       0
    147 x_147                  1                       0
    152 x_152                  1                       4
    154 x_154                  1                       0
    158 x_158                  1                       6
    164 x_164                  1                      -2
    167 x_167                  1                      -5
    173 x_173                  1                       0
    177 x_177                  1                       0
    180 x_180                  1                    21.5
    186 x_186                  1                   19.75
    192 x_192                  1                       0
    194 x_194                  1                       0
    202 x_202                  1                      11
    207 x_207                  1                    17.5
    210 x_210                  1                      -7
    213 x_213                  1         -0.843750000000004
    222 x_222                  1                       0
    226 x_226                  1                       0
Optimal - objective value 924.00000000
      0 x_0                    1                       0
      4 x_4                    1                       6
     10 x_10                   1                       0
     16 x_16                   1                       0
     19 x_19                   1                       0
     25 x_25                   1                       0
     27 x_27                   1                       0
     30 x_30                   1                       0
     35 x_35                   1                       0
     41 x_41                   1                       0
     48 x_48                   1               -21.90625
     52 x_52                   1                       0
     58 x_58                   1                       0
     63 x_63                   1                      17
     67 x_67                   1                22.34375
     68 x_68                   1                       0
     73 x_73                   1                       0
     78 x_78                   1                19.34375
     81 x_81                   1                 11.0625
     88 x_88                   1                       0
     90 x_90                   1                       0
     99 x_99                   1                      23
    100 x_100                  1                       0
    111 x_111                  1                      14
    115 x_115                  1                       0
    116 x_116                  1                       0
    121 x_121                  1                       0
    124 x_124                  1                       0
    128 x_128                  1                       0
    131 x_131                  1                       0
    134 x_134                  1                       0
    139 x_139                  1                       0
    147 x_147                  1                       0
    152 x_152                  1                       4
    154 x_154                  1                       0
    158 x_158                  1                       6
    164 x_164                  1                      -2
    167 x_167                  1                      -5
    173 x_173                  1                       0
    177 x_177                  1                       0
    180 x_180                  1                    21.5
    186 x_186                  1                   19.75
    192 x_192                  1                       0
    194 x_194                  1                       0
    202 x_202                  1                      11
    207 x_207                  1                    17.5
    210 x_210                  1                      -7
    213 x_213                  1         -0.843750000000004
    222 x_222                  1                       0
    226 x_226                  1                       0
